networks/zoo_75_282/zoo_75_282-lower.txt
Number of groups: 30
Flow 1: {1 2 0} {2 40 0} 
Flow 2: {1 4 0} {4 42 0} 
Flow 3: {2 8 0} {8 5 0} {5 43 0} 
Flow 4: {1 7 0} {7 45 0} 
Flow 5: {8 46 0} 
Flow 6: {2 10 0} {10 24 0} {24 9 0} {9 47 0} 
Flow 7: {1 35 0} {35 13 0} {13 51 0} 
Flow 8: {35 14 0} {14 52 0} 
Flow 9: {24 19 0} {19 57 0} 
Flow 10: {5 20 0} {20 58 0} 
Flow 11: {7 21 0} {21 59 0} 
Flow 12: {14 16 0} {16 34 0} {34 26 0} {26 64 0} 
Flow 13: {4 12 0} {12 29 0} {29 67 0} 
Flow 14: {37 31 0} {31 69 0} 
Flow 14: {35 36 0} {36 37 0} Flow 15: {14 33 0} {33 71 0} 
Flow 16: {34 72 0} 
Flow 17: {35 73 0} 
Flow 18: {36 74 0} 
Flow 19: {2 1 0} Flow 28: {4 1 0} Flow 38: {29 11 0} {11 31 0} Flow 43: {5 8 0} {8 2 0} Flow 47: {20 9 0} Flow 50: {9 24 0} Flow 53: {19 28 0} {28 27 0} {27 26 0} Flow 60: {6 20 0} {20 5 0} Flow 61: {7 1 0} Flow 66: {12 50 0} 
Flow 67: {7 13 0} Flow 68: {7 35 0} Flow 69: {35 15 0} {15 53 0} 
Flow 70: {21 28 0} {28 19 0} Flow 73: {19 22 0} {22 60 0} 
Flow 74: {24 62 0} 
Flow 76: {28 66 0} 
Flow 83: {37 75 0} 
Flow 84: {24 10 0} {10 2 0} Flow 97: {9 20 0} Flow 110: {31 37 0} {37 36 0} {36 35 0} Flow 111: {12 4 0} Flow 120: {14 35 0} {35 1 0} Flow 122: {15 35 0} Flow 123: {16 14 0} Flow 125: {17 35 0} Flow 127: {35 7 0} Flow 142: {28 21 0} {21 7 0} Flow 152: {26 34 0} Flow 159: {22 19 0} {19 24 0} Flow 161: {23 19 0} Flow 178: {34 16 0} Flow 179: {26 27 0} {27 28 0} Flow 183: {16 33 0} {33 32 0} {32 31 0} Flow 210: {29 12 0} Flow 214: {31 32 0} {32 33 0} {33 14 0} Flow 226: {31 11 0} {11 29 0} Flow 228: {33 16 0} Flow 241: {4 3 0} {3 41 0} 
Flow 247: {10 48 0} 
Flow 252: {35 17 0} {17 55 0} 
Flow 257: {19 23 0} {23 61 0} 
Flow 260: {27 65 0} 
Flow 263: {12 30 0} {30 68 0} 
Time taken running everything: 0 seconds
