networks/zoo_75_282/zoo_75_282-lower.sol
<?xml version = "1.0" encoding="UTF-8" standalone="yes"?>
<CPLEXSolution version="1.2">
 <header
   problemName="networks/zoo_75_282/zoo_75_282-lower.lp"
   solutionName="incumbent"
   solutionIndex="-1"
   objectiveValue="30"
   solutionTypeValue="3"
   solutionTypeString="primal"
   solutionStatusValue="101"
   solutionStatusString="integer optimal solution"
   solutionMethodString="mip"
   primalFeasible="1"
   dualFeasible="1"
   MIPNodes="0"
   MIPIterations="0"
   writeLevel="3"/>
 <quality
   epInt="1.0000000000000001e-05"
   epRHS="9.9999999999999995e-07"
   maxIntInfeas="0"
   maxPrimalInfeas="0"
   maxX="1"
   maxSlack="1"/>
 <variables>
  <variable name="Y(1,2)" index="1" value="1"/>
  <variable name="Y(2,4)" index="68" value="1"/>
  <variable name="Y(3,5)" index="134" value="1"/>
  <variable name="Y(4,7)" index="201" value="1"/>
  <variable name="Y(5,8)" index="267" value="1"/>
  <variable name="Y(6,9)" index="333" value="1"/>
  <variable name="Y(7,13)" index="402" value="1"/>
  <variable name="Y(8,14)" index="468" value="1"/>
  <variable name="Y(9,19)" index="537" value="1"/>
  <variable name="Y(10,20)" index="603" value="1"/>
  <variable name="Y(11,21)" index="669" value="1"/>
  <variable name="Y(12,26)" index="738" value="1"/>
  <variable name="Y(13,29)" index="806" value="1"/>
  <variable name="Y(14,31)" index="873" value="1"/>
  <variable name="Y(15,33)" index="940" value="1"/>
  <variable name="Y(16,34)" index="1006" value="1"/>
  <variable name="Y(17,35)" index="1072" value="1"/>
  <variable name="Y(18,36)" index="1138" value="1"/>
  <variable name="Y(66,12)" index="4236" value="1"/>
  <variable name="Y(69,15)" index="4434" value="1"/>
  <variable name="Y(73,22)" index="4700" value="1"/>
  <variable name="Y(74,24)" index="4767" value="1"/>
  <variable name="Y(76,28)" index="4900" value="1"/>
  <variable name="Y(83,37)" index="5364" value="1"/>
  <variable name="Y(241,3)" index="15602" value="1"/>
  <variable name="Y(247,10)" index="15999" value="1"/>
  <variable name="Y(252,17)" index="16331" value="1"/>
  <variable name="Y(257,23)" index="16661" value="1"/>
  <variable name="Y(260,27)" index="16859" value="1"/>
  <variable name="Y(263,30)" index="17057" value="1"/>
  <variable name="X(1,2,1)" index="18330" value="1"/>
  <variable name="X(1,4,2)" index="18613" value="1"/>
  <variable name="X(1,7,4)" index="18897" value="1"/>
  <variable name="X(1,35,7)" index="19182" value="1"/>
  <variable name="X(2,1,19)" index="19476" value="1"/>
  <variable name="X(2,8,3)" index="19742" value="1"/>
  <variable name="X(2,10,6)" index="20027" value="1"/>
  <variable name="X(2,40,1)" index="20304" value="1"/>
  <variable name="X(3,41,241)" index="20826" value="1"/>
  <variable name="X(4,1,28)" index="20895" value="1"/>
  <variable name="X(4,3,241)" index="21390" value="1"/>
  <variable name="X(4,12,13)" index="21444" value="1"/>
  <variable name="X(4,42,2)" index="21715" value="1"/>
  <variable name="X(5,8,43)" index="22038" value="1"/>
  <variable name="X(5,20,10)" index="22287" value="1"/>
  <variable name="X(5,43,3)" index="22562" value="1"/>
  <variable name="X(6,20,60)" index="22901" value="1"/>
  <variable name="X(7,1,61)" index="23184" value="1"/>
  <variable name="X(7,13,67)" index="23472" value="1"/>
  <variable name="X(7,21,11)" index="23698" value="1"/>
  <variable name="X(7,35,68)" index="24037" value="1"/>
  <variable name="X(7,45,4)" index="24255" value="1"/>
  <variable name="X(8,2,43)" index="24576" value="1"/>
  <variable name="X(8,5,3)" index="24818" value="1"/>
  <variable name="X(8,46,5)" index="25102" value="1"/>
  <variable name="X(9,20,97)" index="25476" value="1"/>
  <variable name="X(9,24,50)" index="25711" value="1"/>
  <variable name="X(9,47,6)" index="25949" value="1"/>
  <variable name="X(10,2,84)" index="26309" value="1"/>
  <variable name="X(10,24,6)" index="26513" value="1"/>
  <variable name="X(10,48,247)" index="27036" value="1"/>
  <variable name="X(11,29,226)" index="27297" value="1"/>
  <variable name="X(11,31,38)" index="27391" value="1"/>
  <variable name="X(12,4,111)" index="27746" value="1"/>
  <variable name="X(12,29,13)" index="27930" value="1"/>
  <variable name="X(12,30,263)" index="28462" value="1"/>
  <variable name="X(12,50,66)" index="28547" value="1"/>
  <variable name="X(13,51,7)" index="28770" value="1"/>
  <variable name="X(14,16,12)" index="29057" value="1"/>
  <variable name="X(14,33,15)" index="29342" value="1"/>
  <variable name="X(14,35,120)" index="29729" value="1"/>
  <variable name="X(14,52,8)" index="29899" value="1"/>
  <variable name="X(15,35,122)" index="30295" value="1"/>
  <variable name="X(15,53,69)" index="30524" value="1"/>
  <variable name="X(16,14,123)" index="30860" value="1"/>
  <variable name="X(16,33,183)" index="31202" value="1"/>
  <variable name="X(16,34,12)" index="31313" value="1"/>
  <variable name="X(17,35,125)" index="31708" value="1"/>
  <variable name="X(17,55,252)" index="32117" value="1"/>
  <variable name="X(19,22,73)" index="32220" value="1"/>
  <variable name="X(19,23,257)" index="32686" value="1"/>
  <variable name="X(19,24,159)" index="32870" value="1"/>
  <variable name="X(19,28,53)" index="33046" value="1"/>
  <variable name="X(19,57,9)" index="33284" value="1"/>
  <variable name="X(20,5,60)" index="33617" value="1"/>
  <variable name="X(20,9,47)" index="33886" value="1"/>
  <variable name="X(20,58,10)" index="34131" value="1"/>
  <variable name="X(21,7,142)" index="34545" value="1"/>
  <variable name="X(21,28,70)" index="34755" value="1"/>
  <variable name="X(21,59,11)" index="34978" value="1"/>
  <variable name="X(22,19,159)" index="35408" value="1"/>
  <variable name="X(22,60,73)" index="35604" value="1"/>
  <variable name="X(23,19,161)" index="35974" value="1"/>
  <variable name="X(23,61,257)" index="36352" value="1"/>
  <variable name="X(24,9,6)" index="36383" value="1"/>
  <variable name="X(24,10,84)" index="36743" value="1"/>
  <variable name="X(24,19,9)" index="36950" value="1"/>
  <variable name="X(24,62,74)" index="37297" value="1"/>
  <variable name="X(26,27,179)" index="37684" value="1"/>
  <variable name="X(26,34,152)" index="37939" value="1"/>
  <variable name="X(26,64,12)" index="38081" value="1"/>
  <variable name="X(27,26,53)" index="38404" value="1"/>
  <variable name="X(27,28,179)" index="38812" value="1"/>
  <variable name="X(27,65,260)" index="39175" value="1"/>
  <variable name="X(28,19,70)" index="39267" value="1"/>
  <variable name="X(28,21,142)" index="39621" value="1"/>
  <variable name="X(28,27,53)" index="39814" value="1"/>
  <variable name="X(28,66,76)" index="40119" value="1"/>
  <variable name="X(29,11,38)" index="40363" value="1"/>
  <variable name="X(29,12,210)" index="40817" value="1"/>
  <variable name="X(29,67,13)" index="40902" value="1"/>
  <variable name="X(30,68,263)" index="41434" value="1"/>
  <variable name="X(31,11,226)" index="41679" value="1"/>
  <variable name="X(31,32,214)" index="41949" value="1"/>
  <variable name="X(31,37,110)" index="42127" value="1"/>
  <variable name="X(31,69,14)" index="42313" value="1"/>
  <variable name="X(32,31,183)" index="42764" value="1"/>
  <variable name="X(32,33,214)" index="43077" value="1"/>
  <variable name="X(33,14,214)" index="43359" value="1"/>
  <variable name="X(33,16,228)" index="43655" value="1"/>
  <variable name="X(33,32,183)" index="43892" value="1"/>
  <variable name="X(33,71,15)" index="44006" value="1"/>
  <variable name="X(34,16,178)" index="44451" value="1"/>
  <variable name="X(34,26,12)" index="44567" value="1"/>
  <variable name="X(34,72,16)" index="44853" value="1"/>
  <variable name="X(35,1,120)" index="45239" value="1"/>
  <variable name="X(35,7,127)" index="45528" value="1"/>
  <variable name="X(35,13,7)" index="45690" value="1"/>
  <variable name="X(35,14,8)" index="45973" value="1"/>
  <variable name="X(35,15,69)" index="46316" value="1"/>
  <variable name="X(35,17,252)" index="46781" value="1"/>
  <variable name="X(35,36,14)" index="46825" value="1"/>
  <variable name="X(35,73,17)" index="47110" value="1"/>
  <variable name="X(36,35,110)" index="47485" value="1"/>
  <variable name="X(36,37,14)" index="47671" value="1"/>
  <variable name="X(36,74,18)" index="47957" value="1"/>
  <variable name="X(37,31,14)" index="48235" value="1"/>
  <variable name="X(37,36,110)" index="48613" value="1"/>
  <variable name="X(37,75,83)" index="48868" value="1"/>
 </variables>
</CPLEXSolution>
